62	0

0	3	2	3	4
5	6	5	6	7	8	10	14
8	4	5	6	10	14
8	4	5	6	10	14
7	2	12	15
6	5	9	11	12	13	15
9	5	9	11	12	13	15
7	5	9	11	12	13	15
4	4	16	17	20	25
10	4	16	17	20	25
7	2	16	17
2	5	16	17	18	20	25
4	4	16	17	20	25
8	5	16	17	18	20	25
3	4	16	17	20	25
1	4	19	21	27	29
1	4	19	21	27	29
5	4	19	21	27	29
9	3	34	35	38
6	4	22	23	24	28
1	5	22	23	24	26	28
7	3	34	35	38
4	1	30
6	5	33	34	35	37	38
7	1	28
4	4	30	31	32	36
7	5	33	34	35	37	38
2	4	30	31	32	36
6	1	30
2	5	33	34	35	37	38
4	3	34	35	38
7	3	39	40	41
4	3	39	40	41
2	3	39	40	41
8	6	42	43	44	45	46	47
6	3	39	40	41
5	6	42	43	44	45	46	47
6	6	42	43	44	45	46	47
6	4	42	43	46	47
2	6	42	43	44	45	46	47
6	4	42	43	46	47
4	3	48	49	50
8	2	52	55
8	3	51	52	57
9	2	52	55
5	3	51	52	57
4	3	48	49	50
3	3	51	52	57
8	2	53	56
10	2	53	58
3	4	53	54	55	56
3	3	53	54	56
10	1	59
6	1	58
8	1	58
10	1	58
9	1	58
2	1	59
5	1	60
6	1	61
1	1	62
0	0
